# Objective value = 8600.3
I_0_0 2743
I_0_1 3752
I_0_2 3.2629999999999995e+03
I_0_3 3.3869999999999995e+03
I_0_4 3508
I_0_5 3003
I_0_6 3944
I_1_0 24
I_1_1 12
I_1_2 24
I_1_3 24
I_1_4 12
I_1_5 24
I_1_6 12
I_2_0 91
I_2_1 0
I_2_2 91
I_2_3 91
I_2_4 0
I_2_5 91
I_2_6 0
I_3_0 91
I_3_1 0
I_3_2 91
I_3_3 0
I_3_4 91
I_3_5 91
I_3_6 0
I_4_0 45
I_4_1 0
I_4_2 45
I_4_3 45
I_4_4 0
I_4_5 45
I_4_6 0
I_5_0 174
I_5_1 87
I_5_2 0
I_5_3 174
I_5_4 87
I_5_5 174
I_5_6 87
I_6_0 78
I_6_1 39
I_6_2 0
I_6_3 78
I_6_4 3.8999999999999964e+01
I_6_5 78
I_6_6 39
I_7_0 15
I_7_1 0
I_7_2 15
I_7_3 0
I_7_4 15
I_7_5 15
I_7_6 0
I_8_0 55
I_8_1 0
I_8_2 55
I_8_3 0
I_8_4 55
I_8_5 55
I_8_6 0
I_9_0 21
I_9_1 0
I_9_2 21
I_9_3 21
I_9_4 0
I_9_5 21
I_9_6 0
I_10_0 184
I_10_1 184
I_10_2 9.1999999999999858e+01
I_10_3 0
I_10_4 184
I_10_5 9.2000000000000810e+01
I_10_6 8.0291329140891321e-13
I_11_0 102
I_11_1 51
I_11_2 102
I_11_3 51
I_11_4 0
I_11_5 102
I_11_6 51
I_12_0 20
I_12_1 0
I_12_2 20
I_12_3 0
I_12_4 20
I_12_5 20
I_12_6 0
I_13_0 47
I_13_1 0
I_13_2 47
I_13_3 0
I_13_4 47
I_13_5 47
I_13_6 0
I_14_0 72
I_14_1 0
I_14_2 72
I_14_3 72
I_14_4 0
I_14_5 72
I_14_6 0
I_15_0 23
I_15_1 0
I_15_2 23
I_15_3 23
I_15_4 0
I_15_5 23
I_15_6 0
I_16_0 86
I_16_1 43
I_16_2 86
I_16_3 43
I_16_4 0
I_16_5 86
I_16_6 43
I_17_0 142
I_17_1 71
I_17_2 142
I_17_3 142
I_17_4 71
I_17_5 142
I_17_6 71
I_18_0 176
I_18_1 88
I_18_2 0
I_18_3 176
I_18_4 176
I_18_5 88
I_18_6 0
I_19_0 80
I_19_1 0
I_19_2 80
I_19_3 0
I_19_4 80
I_19_5 0
I_19_6 80
I_20_0 116
I_20_1 58
I_20_2 116
I_20_3 5.8000000000000355e+01
I_20_4 1.7763568394002505e-13
I_20_5 116
I_20_6 58
q_1_0_0 0
q_1_0_1 24
q_1_0_2 12
q_1_0_3 0
q_1_0_4 24
q_1_0_5 0
q_1_1_0 0
q_1_1_1 0
q_1_1_2 0
q_1_1_3 0
q_1_1_4 0
q_1_1_5 0
q_2_0_0 0
q_2_0_1 182
q_2_0_2 91
q_2_0_3 0
q_2_0_4 182
q_2_0_5 0
q_2_1_0 0
q_2_1_1 0
q_2_1_2 0
q_2_1_3 0
q_2_1_4 0
q_2_1_5 0
q_3_0_0 0
q_3_0_1 0
q_3_0_2 0
q_3_0_3 0
q_3_0_4 0
q_3_0_5 0
q_3_1_0 0
q_3_1_1 182
q_3_1_2 0
q_3_1_3 182
q_3_1_4 91
q_3_1_5 0
q_4_0_0 0
q_4_0_1 90
q_4_0_2 45
q_4_0_3 0
q_4_0_4 90
q_4_0_5 0
q_4_1_0 0
q_4_1_1 0
q_4_1_2 0
q_4_1_3 0
q_4_1_4 0
q_4_1_5 0
q_5_0_0 0
q_5_0_1 0
q_5_0_2 261
q_5_0_3 0
q_5_0_4 0
q_5_0_5 0
q_5_1_0 0
q_5_1_1 0
q_5_1_2 0
q_5_1_3 0
q_5_1_4 174
q_5_1_5 0
q_6_0_0 0
q_6_0_1 0
q_6_0_2 117
q_6_0_3 0
q_6_0_4 78.0000000000001
q_6_0_5 0
q_6_1_0 0
q_6_1_1 0
q_6_1_2 0
q_6_1_3 0
q_6_1_4 0
q_6_1_5 0
q_7_0_0 0
q_7_0_1 0
q_7_0_2 0
q_7_0_3 30
q_7_0_4 15
q_7_0_5 0
q_7_1_0 0
q_7_1_1 30
q_7_1_2 0
q_7_1_3 0
q_7_1_4 0
q_7_1_5 0
q_8_0_0 0
q_8_0_1 110
q_8_0_2 0
q_8_0_3 0
q_8_0_4 55
q_8_0_5 0
q_8_1_0 0
q_8_1_1 0
q_8_1_2 0
q_8_1_3 110
q_8_1_4 0
q_8_1_5 0
q_9_0_0 0
q_9_0_1 0
q_9_0_2 21
q_9_0_3 0
q_9_0_4 42
q_9_0_5 0
q_9_1_0 0
q_9_1_1 42
q_9_1_2 0
q_9_1_3 0
q_9_1_4 0
q_9_1_5 0
q_10_0_0 92
q_10_0_1 0
q_10_0_2 0
q_10_0_3 276
q_10_0_4 0
q_10_0_5 0
q_10_1_0 0
q_10_1_1 0
q_10_1_2 0
q_10_1_3 0
q_10_1_4 0
q_10_1_5 0
q_11_0_0 0
q_11_0_1 0
q_11_0_2 0
q_11_0_3 0
q_11_0_4 0
q_11_0_5 0
q_11_1_0 0
q_11_1_1 102
q_11_1_2 0
q_11_1_3 0
q_11_1_4 153
q_11_1_5 0
q_12_0_0 0
q_12_0_1 40
q_12_0_2 0
q_12_0_3 0
q_12_0_4 0
q_12_0_5 0
q_12_1_0 0
q_12_1_1 0
q_12_1_2 0
q_12_1_3 40
q_12_1_4 1.9999999999999993e+01
q_12_1_5 0
q_13_0_0 0
q_13_0_1 0
q_13_0_2 0
q_13_0_3 0
q_13_0_4 0
q_13_0_5 0
q_13_1_0 0
q_13_1_1 94
q_13_1_2 0
q_13_1_3 94
q_13_1_4 47
q_13_1_5 0
q_14_0_0 0
q_14_0_1 0
q_14_0_2 72
q_14_0_3 0
q_14_0_4 0
q_14_0_5 0
q_14_1_0 0
q_14_1_1 144
q_14_1_2 0
q_14_1_3 0
q_14_1_4 144
q_14_1_5 0
q_15_0_0 0
q_15_0_1 0
q_15_0_2 2.2999999999999993e+01
q_15_0_3 0
q_15_0_4 0
q_15_0_5 0
q_15_1_0 0
q_15_1_1 46
q_15_1_2 0
q_15_1_3 0
q_15_1_4 46
q_15_1_5 0
q_16_0_0 0
q_16_0_1 86
q_16_0_2 0
q_16_0_3 0
q_16_0_4 129
q_16_0_5 0
q_16_1_0 0
q_16_1_1 0
q_16_1_2 0
q_16_1_3 0
q_16_1_4 0
q_16_1_5 0
q_17_0_0 0
q_17_0_1 0
q_17_0_2 71
q_17_0_3 0
q_17_0_4 0
q_17_0_5 0
q_17_1_0 0
q_17_1_1 142
q_17_1_2 0
q_17_1_3 0
q_17_1_4 142
q_17_1_5 0
q_18_0_0 0
q_18_0_1 0
q_18_0_2 0
q_18_0_3 8.7999999999999886e+01
q_18_0_4 0
q_18_0_5 0
q_18_1_0 0
q_18_1_1 0
q_18_1_2 264
q_18_1_3 0
q_18_1_4 0
q_18_1_5 0
q_19_0_0 0
q_19_0_1 160
q_19_0_2 0
q_19_0_3 160
q_19_0_4 0
q_19_0_5 160
q_19_1_0 0
q_19_1_1 0
q_19_1_2 0
q_19_1_3 0
q_19_1_4 0
q_19_1_5 0
q_20_0_0 0
q_20_0_1 116
q_20_0_2 0
q_20_0_3 0
q_20_0_4 1.7399999999999983e+02
q_20_0_5 0
q_20_1_0 0
q_20_1_1 0
q_20_1_2 0
q_20_1_3 0
q_20_1_4 0
q_20_1_5 0
y_0_0_0 1
y_0_0_1 1
y_0_0_2 1
y_0_0_3 1
y_0_0_4 1
y_0_0_5 1
y_0_1_0 0
y_0_1_1 1
y_0_1_2 1
y_0_1_3 1
y_0_1_4 1
y_0_1_5 0
y_1_0_0 0
y_1_0_1 1
y_1_0_2 1
y_1_0_3 0
y_1_0_4 1
y_1_0_5 0
y_1_1_0 0
y_1_1_1 0
y_1_1_2 0
y_1_1_3 0
y_1_1_4 0
y_1_1_5 0
y_2_0_0 0
y_2_0_1 1
y_2_0_2 1
y_2_0_3 0
y_2_0_4 1
y_2_0_5 0
y_2_1_0 0
y_2_1_1 0
y_2_1_2 0
y_2_1_3 0
y_2_1_4 0
y_2_1_5 0
y_3_0_0 0
y_3_0_1 0
y_3_0_2 0
y_3_0_3 0
y_3_0_4 0
y_3_0_5 0
y_3_1_0 0
y_3_1_1 1
y_3_1_2 0
y_3_1_3 1
y_3_1_4 1
y_3_1_5 0
y_4_0_0 0
y_4_0_1 1
y_4_0_2 1
y_4_0_3 0
y_4_0_4 1
y_4_0_5 0
y_4_1_0 0
y_4_1_1 0
y_4_1_2 0
y_4_1_3 0
y_4_1_4 0
y_4_1_5 0
y_5_0_0 0
y_5_0_1 0
y_5_0_2 1
y_5_0_3 0
y_5_0_4 0
y_5_0_5 0
y_5_1_0 0
y_5_1_1 0
y_5_1_2 0
y_5_1_3 0
y_5_1_4 1
y_5_1_5 0
y_6_0_0 0
y_6_0_1 0
y_6_0_2 1
y_6_0_3 0
y_6_0_4 1
y_6_0_5 0
y_6_1_0 0
y_6_1_1 0
y_6_1_2 0
y_6_1_3 0
y_6_1_4 0
y_6_1_5 0
y_7_0_0 0
y_7_0_1 0
y_7_0_2 0
y_7_0_3 1
y_7_0_4 1
y_7_0_5 0
y_7_1_0 0
y_7_1_1 1
y_7_1_2 0
y_7_1_3 0
y_7_1_4 0
y_7_1_5 0
y_8_0_0 0
y_8_0_1 1
y_8_0_2 0
y_8_0_3 0
y_8_0_4 1
y_8_0_5 0
y_8_1_0 0
y_8_1_1 0
y_8_1_2 0
y_8_1_3 1
y_8_1_4 0
y_8_1_5 0
y_9_0_0 0
y_9_0_1 0
y_9_0_2 1
y_9_0_3 0
y_9_0_4 1
y_9_0_5 0
y_9_1_0 0
y_9_1_1 1
y_9_1_2 0
y_9_1_3 0
y_9_1_4 0
y_9_1_5 0
y_10_0_0 1
y_10_0_1 0
y_10_0_2 0
y_10_0_3 1
y_10_0_4 0
y_10_0_5 0
y_10_1_0 0
y_10_1_1 0
y_10_1_2 0
y_10_1_3 0
y_10_1_4 0
y_10_1_5 0
y_11_0_0 0
y_11_0_1 0
y_11_0_2 0
y_11_0_3 0
y_11_0_4 0
y_11_0_5 0
y_11_1_0 0
y_11_1_1 1
y_11_1_2 0
y_11_1_3 0
y_11_1_4 1
y_11_1_5 0
y_12_0_0 0
y_12_0_1 1
y_12_0_2 0
y_12_0_3 0
y_12_0_4 0
y_12_0_5 0
y_12_1_0 0
y_12_1_1 0
y_12_1_2 0
y_12_1_3 1
y_12_1_4 1
y_12_1_5 0
y_13_0_0 0
y_13_0_1 0
y_13_0_2 0
y_13_0_3 0
y_13_0_4 0
y_13_0_5 0
y_13_1_0 0
y_13_1_1 1
y_13_1_2 0
y_13_1_3 1
y_13_1_4 1
y_13_1_5 0
y_14_0_0 0
y_14_0_1 0
y_14_0_2 1
y_14_0_3 0
y_14_0_4 0
y_14_0_5 0
y_14_1_0 0
y_14_1_1 1
y_14_1_2 0
y_14_1_3 0
y_14_1_4 1
y_14_1_5 0
y_15_0_0 0
y_15_0_1 0
y_15_0_2 1
y_15_0_3 0
y_15_0_4 0
y_15_0_5 0
y_15_1_0 0
y_15_1_1 1
y_15_1_2 0
y_15_1_3 0
y_15_1_4 1
y_15_1_5 0
y_16_0_0 0
y_16_0_1 1
y_16_0_2 0
y_16_0_3 0
y_16_0_4 1
y_16_0_5 0
y_16_1_0 0
y_16_1_1 0
y_16_1_2 0
y_16_1_3 0
y_16_1_4 0
y_16_1_5 0
y_17_0_0 0
y_17_0_1 0
y_17_0_2 1
y_17_0_3 0
y_17_0_4 0
y_17_0_5 0
y_17_1_0 0
y_17_1_1 1
y_17_1_2 0
y_17_1_3 0
y_17_1_4 1
y_17_1_5 0
y_18_0_0 0
y_18_0_1 0
y_18_0_2 0
y_18_0_3 1
y_18_0_4 0
y_18_0_5 0
y_18_1_0 0
y_18_1_1 0
y_18_1_2 1
y_18_1_3 0
y_18_1_4 0
y_18_1_5 0
y_19_0_0 0
y_19_0_1 1
y_19_0_2 0
y_19_0_3 1
y_19_0_4 0
y_19_0_5 1
y_19_1_0 0
y_19_1_1 0
y_19_1_2 0
y_19_1_3 0
y_19_1_4 0
y_19_1_5 0
y_20_0_0 0
y_20_0_1 1
y_20_0_2 0
y_20_0_3 0
y_20_0_4 1
y_20_0_5 0
y_20_1_0 0
y_20_1_1 0
y_20_1_2 0
y_20_1_3 0
y_20_1_4 0
y_20_1_5 0
x_0_1_0_0 0
x_0_1_0_1 0
x_0_1_0_2 0
x_0_1_0_3 0
x_0_1_0_4 0
x_0_1_0_5 0
x_0_1_1_0 0
x_0_1_1_1 0
x_0_1_1_2 0
x_0_1_1_3 0
x_0_1_1_4 0
x_0_1_1_5 0
x_0_2_0_0 0
x_0_2_0_1 0
x_0_2_0_2 0
x_0_2_0_3 0
x_0_2_0_4 0
x_0_2_0_5 0
x_0_2_1_0 0
x_0_2_1_1 0
x_0_2_1_2 0
x_0_2_1_3 0
x_0_2_1_4 0
x_0_2_1_5 0
x_0_3_0_0 0
x_0_3_0_1 0
x_0_3_0_2 0
x_0_3_0_3 0
x_0_3_0_4 0
x_0_3_0_5 0
x_0_3_1_0 0
x_0_3_1_1 0
x_0_3_1_2 0
x_0_3_1_3 0
x_0_3_1_4 0
x_0_3_1_5 0
x_0_4_0_0 0
x_0_4_0_1 0
x_0_4_0_2 1
x_0_4_0_3 0
x_0_4_0_4 0
x_0_4_0_5 0
x_0_4_1_0 0
x_0_4_1_1 0
x_0_4_1_2 0
x_0_4_1_3 0
x_0_4_1_4 0
x_0_4_1_5 0
x_0_5_0_0 0
x_0_5_0_1 0
x_0_5_0_2 0
x_0_5_0_3 0
x_0_5_0_4 0
x_0_5_0_5 0
x_0_5_1_0 0
x_0_5_1_1 0
x_0_5_1_2 0
x_0_5_1_3 0
x_0_5_1_4 0
x_0_5_1_5 0
x_0_6_0_0 0
x_0_6_0_1 0
x_0_6_0_2 0
x_0_6_0_3 0
x_0_6_0_4 0
x_0_6_0_5 0
x_0_6_1_0 0
x_0_6_1_1 0
x_0_6_1_2 0
x_0_6_1_3 0
x_0_6_1_4 0
x_0_6_1_5 0
x_0_7_0_0 0
x_0_7_0_1 0
x_0_7_0_2 0
x_0_7_0_3 0
x_0_7_0_4 1
x_0_7_0_5 0
x_0_7_1_0 0
x_0_7_1_1 1
x_0_7_1_2 0
x_0_7_1_3 0
x_0_7_1_4 0
x_0_7_1_5 0
x_0_8_0_0 0
x_0_8_0_1 0
x_0_8_0_2 0
x_0_8_0_3 0
x_0_8_0_4 0
x_0_8_0_5 0
x_0_8_1_0 0
x_0_8_1_1 0
x_0_8_1_2 0
x_0_8_1_3 0
x_0_8_1_4 0
x_0_8_1_5 0
x_0_9_0_0 0
x_0_9_0_1 0
x_0_9_0_2 0
x_0_9_0_3 0
x_0_9_0_4 0
x_0_9_0_5 0
x_0_9_1_0 0
x_0_9_1_1 0
x_0_9_1_2 0
x_0_9_1_3 0
x_0_9_1_4 0
x_0_9_1_5 0
x_0_10_0_0 2
x_0_10_0_1 0
x_0_10_0_2 0
x_0_10_0_3 1
x_0_10_0_4 0
x_0_10_0_5 0
x_0_10_1_0 0
x_0_10_1_1 0
x_0_10_1_2 0
x_0_10_1_3 0
x_0_10_1_4 0
x_0_10_1_5 0
x_0_11_0_0 0
x_0_11_0_1 0
x_0_11_0_2 0
x_0_11_0_3 0
x_0_11_0_4 0
x_0_11_0_5 0
x_0_11_1_0 0
x_0_11_1_1 0
x_0_11_1_2 0
x_0_11_1_3 0
x_0_11_1_4 0
x_0_11_1_5 0
x_0_12_0_0 0
x_0_12_0_1 1
x_0_12_0_2 0
x_0_12_0_3 0
x_0_12_0_4 0
x_0_12_0_5 0
x_0_12_1_0 0
x_0_12_1_1 0
x_0_12_1_2 0
x_0_12_1_3 1
x_0_12_1_4 0
x_0_12_1_5 0
x_0_13_0_0 0
x_0_13_0_1 0
x_0_13_0_2 0
x_0_13_0_3 0
x_0_13_0_4 0
x_0_13_0_5 0
x_0_13_1_0 0
x_0_13_1_1 1
x_0_13_1_2 0
x_0_13_1_3 1
x_0_13_1_4 1
x_0_13_1_5 0
x_0_14_0_0 0
x_0_14_0_1 0
x_0_14_0_2 0
x_0_14_0_3 0
x_0_14_0_4 0
x_0_14_0_5 0
x_0_14_1_0 0
x_0_14_1_1 0
x_0_14_1_2 0
x_0_14_1_3 0
x_0_14_1_4 0
x_0_14_1_5 0
x_0_15_0_0 0
x_0_15_0_1 0
x_0_15_0_2 0
x_0_15_0_3 0
x_0_15_0_4 0
x_0_15_0_5 0
x_0_15_1_0 0
x_0_15_1_1 0
x_0_15_1_2 0
x_0_15_1_3 0
x_0_15_1_4 0
x_0_15_1_5 0
x_0_16_0_0 0
x_0_16_0_1 0
x_0_16_0_2 0
x_0_16_0_3 0
x_0_16_0_4 1
x_0_16_0_5 0
x_0_16_1_0 0
x_0_16_1_1 0
x_0_16_1_2 0
x_0_16_1_3 0
x_0_16_1_4 0
x_0_16_1_5 0
x_0_17_0_0 0
x_0_17_0_1 0
x_0_17_0_2 1
x_0_17_0_3 0
x_0_17_0_4 0
x_0_17_0_5 0
x_0_17_1_0 0
x_0_17_1_1 0
x_0_17_1_2 0
x_0_17_1_3 0
x_0_17_1_4 1
x_0_17_1_5 0
x_0_18_0_0 0
x_0_18_0_1 0
x_0_18_0_2 0
x_0_18_0_3 1
x_0_18_0_4 0
x_0_18_0_5 0
x_0_18_1_0 0
x_0_18_1_1 0
x_0_18_1_2 2
x_0_18_1_3 0
x_0_18_1_4 0
x_0_18_1_5 0
x_0_19_0_0 0
x_0_19_0_1 1
x_0_19_0_2 0
x_0_19_0_3 0
x_0_19_0_4 0
x_0_19_0_5 2
x_0_19_1_0 0
x_0_19_1_1 0
x_0_19_1_2 0
x_0_19_1_3 0
x_0_19_1_4 0
x_0_19_1_5 0
x_0_20_0_0 0
x_0_20_0_1 0
x_0_20_0_2 0
x_0_20_0_3 0
x_0_20_0_4 0
x_0_20_0_5 0
x_0_20_1_0 0
x_0_20_1_1 0
x_0_20_1_2 0
x_0_20_1_3 0
x_0_20_1_4 0
x_0_20_1_5 0
x_1_2_0_0 0
x_1_2_0_1 1
x_1_2_0_2 1
x_1_2_0_3 0
x_1_2_0_4 1
x_1_2_0_5 0
x_1_2_1_0 0
x_1_2_1_1 0
x_1_2_1_2 0
x_1_2_1_3 0
x_1_2_1_4 0
x_1_2_1_5 0
x_1_3_0_0 0
x_1_3_0_1 0
x_1_3_0_2 0
x_1_3_0_3 0
x_1_3_0_4 0
x_1_3_0_5 0
x_1_3_1_0 0
x_1_3_1_1 0
x_1_3_1_2 0
x_1_3_1_3 0
x_1_3_1_4 0
x_1_3_1_5 0
x_1_4_0_0 0
x_1_4_0_1 0
x_1_4_0_2 1
x_1_4_0_3 0
x_1_4_0_4 0
x_1_4_0_5 0
x_1_4_1_0 0
x_1_4_1_1 0
x_1_4_1_2 0
x_1_4_1_3 0
x_1_4_1_4 0
x_1_4_1_5 0
x_1_5_0_0 0
x_1_5_0_1 0
x_1_5_0_2 0
x_1_5_0_3 0
x_1_5_0_4 0
x_1_5_0_5 0
x_1_5_1_0 0
x_1_5_1_1 0
x_1_5_1_2 0
x_1_5_1_3 0
x_1_5_1_4 0
x_1_5_1_5 0
x_1_6_0_0 0
x_1_6_0_1 0
x_1_6_0_2 0
x_1_6_0_3 0
x_1_6_0_4 0
x_1_6_0_5 0
x_1_6_1_0 0
x_1_6_1_1 0
x_1_6_1_2 0
x_1_6_1_3 0
x_1_6_1_4 0
x_1_6_1_5 0
x_1_7_0_0 0
x_1_7_0_1 0
x_1_7_0_2 0
x_1_7_0_3 0
x_1_7_0_4 0
x_1_7_0_5 0
x_1_7_1_0 0
x_1_7_1_1 0
x_1_7_1_2 0
x_1_7_1_3 0
x_1_7_1_4 0
x_1_7_1_5 0
x_1_8_0_0 0
x_1_8_0_1 1
x_1_8_0_2 0
x_1_8_0_3 0
x_1_8_0_4 1
x_1_8_0_5 0
x_1_8_1_0 0
x_1_8_1_1 0
x_1_8_1_2 0
x_1_8_1_3 0
x_1_8_1_4 0
x_1_8_1_5 0
x_1_9_0_0 0
x_1_9_0_1 0
x_1_9_0_2 0
x_1_9_0_3 0
x_1_9_0_4 0
x_1_9_0_5 0
x_1_9_1_0 0
x_1_9_1_1 0
x_1_9_1_2 0
x_1_9_1_3 0
x_1_9_1_4 0
x_1_9_1_5 0
x_1_10_0_0 0
x_1_10_0_1 0
x_1_10_0_2 0
x_1_10_0_3 0
x_1_10_0_4 0
x_1_10_0_5 0
x_1_10_1_0 0
x_1_10_1_1 0
x_1_10_1_2 0
x_1_10_1_3 0
x_1_10_1_4 0
x_1_10_1_5 0
x_1_11_0_0 0
x_1_11_0_1 0
x_1_11_0_2 0
x_1_11_0_3 0
x_1_11_0_4 0
x_1_11_0_5 0
x_1_11_1_0 0
x_1_11_1_1 0
x_1_11_1_2 0
x_1_11_1_3 0
x_1_11_1_4 0
x_1_11_1_5 0
x_1_12_0_0 0
x_1_12_0_1 0
x_1_12_0_2 0
x_1_12_0_3 0
x_1_12_0_4 0
x_1_12_0_5 0
x_1_12_1_0 0
x_1_12_1_1 0
x_1_12_1_2 0
x_1_12_1_3 0
x_1_12_1_4 0
x_1_12_1_5 0
x_1_13_0_0 0
x_1_13_0_1 0
x_1_13_0_2 0
x_1_13_0_3 0
x_1_13_0_4 0
x_1_13_0_5 0
x_1_13_1_0 0
x_1_13_1_1 0
x_1_13_1_2 0
x_1_13_1_3 0
x_1_13_1_4 0
x_1_13_1_5 0
x_1_14_0_0 0
x_1_14_0_1 0
x_1_14_0_2 0
x_1_14_0_3 0
x_1_14_0_4 0
x_1_14_0_5 0
x_1_14_1_0 0
x_1_14_1_1 0
x_1_14_1_2 0
x_1_14_1_3 0
x_1_14_1_4 0
x_1_14_1_5 0
x_1_15_0_0 0
x_1_15_0_1 0
x_1_15_0_2 0
x_1_15_0_3 0
x_1_15_0_4 0
x_1_15_0_5 0
x_1_15_1_0 0
x_1_15_1_1 0
x_1_15_1_2 0
x_1_15_1_3 0
x_1_15_1_4 0
x_1_15_1_5 0
x_1_16_0_0 0
x_1_16_0_1 0
x_1_16_0_2 0
x_1_16_0_3 0
x_1_16_0_4 0
x_1_16_0_5 0
x_1_16_1_0 0
x_1_16_1_1 0
x_1_16_1_2 0
x_1_16_1_3 0
x_1_16_1_4 0
x_1_16_1_5 0
x_1_17_0_0 0
x_1_17_0_1 0
x_1_17_0_2 0
x_1_17_0_3 0
x_1_17_0_4 0
x_1_17_0_5 0
x_1_17_1_0 0
x_1_17_1_1 0
x_1_17_1_2 0
x_1_17_1_3 0
x_1_17_1_4 0
x_1_17_1_5 0
x_1_18_0_0 0
x_1_18_0_1 0
x_1_18_0_2 0
x_1_18_0_3 0
x_1_18_0_4 0
x_1_18_0_5 0
x_1_18_1_0 0
x_1_18_1_1 0
x_1_18_1_2 0
x_1_18_1_3 0
x_1_18_1_4 0
x_1_18_1_5 0
x_1_19_0_0 0
x_1_19_0_1 0
x_1_19_0_2 0
x_1_19_0_3 0
x_1_19_0_4 0
x_1_19_0_5 0
x_1_19_1_0 0
x_1_19_1_1 0
x_1_19_1_2 0
x_1_19_1_3 0
x_1_19_1_4 0
x_1_19_1_5 0
x_1_20_0_0 0
x_1_20_0_1 0
x_1_20_0_2 0
x_1_20_0_3 0
x_1_20_0_4 0
x_1_20_0_5 0
x_1_20_1_0 0
x_1_20_1_1 0
x_1_20_1_2 0
x_1_20_1_3 0
x_1_20_1_4 0
x_1_20_1_5 0
x_2_3_0_0 0
x_2_3_0_1 0
x_2_3_0_2 0
x_2_3_0_3 0
x_2_3_0_4 0
x_2_3_0_5 0
x_2_3_1_0 0
x_2_3_1_1 0
x_2_3_1_2 0
x_2_3_1_3 0
x_2_3_1_4 0
x_2_3_1_5 0
x_2_4_0_0 0
x_2_4_0_1 1
x_2_4_0_2 0
x_2_4_0_3 0
x_2_4_0_4 1
x_2_4_0_5 0
x_2_4_1_0 0
x_2_4_1_1 0
x_2_4_1_2 0
x_2_4_1_3 0
x_2_4_1_4 0
x_2_4_1_5 0
x_2_5_0_0 0
x_2_5_0_1 0
x_2_5_0_2 0
x_2_5_0_3 0
x_2_5_0_4 0
x_2_5_0_5 0
x_2_5_1_0 0
x_2_5_1_1 0
x_2_5_1_2 0
x_2_5_1_3 0
x_2_5_1_4 0
x_2_5_1_5 0
x_2_6_0_0 0
x_2_6_0_1 0
x_2_6_0_2 0
x_2_6_0_3 0
x_2_6_0_4 0
x_2_6_0_5 0
x_2_6_1_0 0
x_2_6_1_1 0
x_2_6_1_2 0
x_2_6_1_3 0
x_2_6_1_4 0
x_2_6_1_5 0
x_2_7_0_0 0
x_2_7_0_1 0
x_2_7_0_2 0
x_2_7_0_3 0
x_2_7_0_4 0
x_2_7_0_5 0
x_2_7_1_0 0
x_2_7_1_1 0
x_2_7_1_2 0
x_2_7_1_3 0
x_2_7_1_4 0
x_2_7_1_5 0
x_2_8_0_0 0
x_2_8_0_1 0
x_2_8_0_2 0
x_2_8_0_3 0
x_2_8_0_4 0
x_2_8_0_5 0
x_2_8_1_0 0
x_2_8_1_1 0
x_2_8_1_2 0
x_2_8_1_3 0
x_2_8_1_4 0
x_2_8_1_5 0
x_2_9_0_0 0
x_2_9_0_1 0
x_2_9_0_2 1
x_2_9_0_3 0
x_2_9_0_4 0
x_2_9_0_5 0
x_2_9_1_0 0
x_2_9_1_1 0
x_2_9_1_2 0
x_2_9_1_3 0
x_2_9_1_4 0
x_2_9_1_5 0
x_2_10_0_0 0
x_2_10_0_1 0
x_2_10_0_2 0
x_2_10_0_3 0
x_2_10_0_4 0
x_2_10_0_5 0
x_2_10_1_0 0
x_2_10_1_1 0
x_2_10_1_2 0
x_2_10_1_3 0
x_2_10_1_4 0
x_2_10_1_5 0
x_2_11_0_0 0
x_2_11_0_1 0
x_2_11_0_2 0
x_2_11_0_3 0
x_2_11_0_4 0
x_2_11_0_5 0
x_2_11_1_0 0
x_2_11_1_1 0
x_2_11_1_2 0
x_2_11_1_3 0
x_2_11_1_4 0
x_2_11_1_5 0
x_2_12_0_0 0
x_2_12_0_1 0
x_2_12_0_2 0
x_2_12_0_3 0
x_2_12_0_4 0
x_2_12_0_5 0
x_2_12_1_0 0
x_2_12_1_1 0
x_2_12_1_2 0
x_2_12_1_3 0
x_2_12_1_4 0
x_2_12_1_5 0
x_2_13_0_0 0
x_2_13_0_1 0
x_2_13_0_2 0
x_2_13_0_3 0
x_2_13_0_4 0
x_2_13_0_5 0
x_2_13_1_0 0
x_2_13_1_1 0
x_2_13_1_2 0
x_2_13_1_3 0
x_2_13_1_4 0
x_2_13_1_5 0
x_2_14_0_0 0
x_2_14_0_1 0
x_2_14_0_2 0
x_2_14_0_3 0
x_2_14_0_4 0
x_2_14_0_5 0
x_2_14_1_0 0
x_2_14_1_1 0
x_2_14_1_2 0
x_2_14_1_3 0
x_2_14_1_4 0
x_2_14_1_5 0
x_2_15_0_0 0
x_2_15_0_1 0
x_2_15_0_2 0
x_2_15_0_3 0
x_2_15_0_4 0
x_2_15_0_5 0
x_2_15_1_0 0
x_2_15_1_1 0
x_2_15_1_2 0
x_2_15_1_3 0
x_2_15_1_4 0
x_2_15_1_5 0
x_2_16_0_0 0
x_2_16_0_1 0
x_2_16_0_2 0
x_2_16_0_3 0
x_2_16_0_4 0
x_2_16_0_5 0
x_2_16_1_0 0
x_2_16_1_1 0
x_2_16_1_2 0
x_2_16_1_3 0
x_2_16_1_4 0
x_2_16_1_5 0
x_2_17_0_0 0
x_2_17_0_1 0
x_2_17_0_2 0
x_2_17_0_3 0
x_2_17_0_4 0
x_2_17_0_5 0
x_2_17_1_0 0
x_2_17_1_1 0
x_2_17_1_2 0
x_2_17_1_3 0
x_2_17_1_4 0
x_2_17_1_5 0
x_2_18_0_0 0
x_2_18_0_1 0
x_2_18_0_2 0
x_2_18_0_3 0
x_2_18_0_4 0
x_2_18_0_5 0
x_2_18_1_0 0
x_2_18_1_1 0
x_2_18_1_2 0
x_2_18_1_3 0
x_2_18_1_4 0
x_2_18_1_5 0
x_2_19_0_0 0
x_2_19_0_1 0
x_2_19_0_2 0
x_2_19_0_3 0
x_2_19_0_4 0
x_2_19_0_5 0
x_2_19_1_0 0
x_2_19_1_1 0
x_2_19_1_2 0
x_2_19_1_3 0
x_2_19_1_4 0
x_2_19_1_5 0
x_2_20_0_0 0
x_2_20_0_1 0
x_2_20_0_2 0
x_2_20_0_3 0
x_2_20_0_4 0
x_2_20_0_5 0
x_2_20_1_0 0
x_2_20_1_1 0
x_2_20_1_2 0
x_2_20_1_3 0
x_2_20_1_4 0
x_2_20_1_5 0
x_3_4_0_0 0
x_3_4_0_1 0
x_3_4_0_2 0
x_3_4_0_3 0
x_3_4_0_4 0
x_3_4_0_5 0
x_3_4_1_0 0
x_3_4_1_1 0
x_3_4_1_2 0
x_3_4_1_3 0
x_3_4_1_4 0
x_3_4_1_5 0
x_3_5_0_0 0
x_3_5_0_1 0
x_3_5_0_2 0
x_3_5_0_3 0
x_3_5_0_4 0
x_3_5_0_5 0
x_3_5_1_0 0
x_3_5_1_1 0
x_3_5_1_2 0
x_3_5_1_3 0
x_3_5_1_4 0
x_3_5_1_5 0
x_3_6_0_0 0
x_3_6_0_1 0
x_3_6_0_2 0
x_3_6_0_3 0
x_3_6_0_4 0
x_3_6_0_5 0
x_3_6_1_0 0
x_3_6_1_1 0
x_3_6_1_2 0
x_3_6_1_3 0
x_3_6_1_4 0
x_3_6_1_5 0
x_3_7_0_0 0
x_3_7_0_1 0
x_3_7_0_2 0
x_3_7_0_3 0
x_3_7_0_4 0
x_3_7_0_5 0
x_3_7_1_0 0
x_3_7_1_1 0
x_3_7_1_2 0
x_3_7_1_3 0
x_3_7_1_4 0
x_3_7_1_5 0
x_3_8_0_0 0
x_3_8_0_1 0
x_3_8_0_2 0
x_3_8_0_3 0
x_3_8_0_4 0
x_3_8_0_5 0
x_3_8_1_0 0
x_3_8_1_1 0
x_3_8_1_2 0
x_3_8_1_3 1
x_3_8_1_4 0
x_3_8_1_5 0
x_3_9_0_0 0
x_3_9_0_1 0
x_3_9_0_2 0
x_3_9_0_3 0
x_3_9_0_4 0
x_3_9_0_5 0
x_3_9_1_0 0
x_3_9_1_1 1
x_3_9_1_2 0
x_3_9_1_3 0
x_3_9_1_4 0
x_3_9_1_5 0
x_3_10_0_0 0
x_3_10_0_1 0
x_3_10_0_2 0
x_3_10_0_3 0
x_3_10_0_4 0
x_3_10_0_5 0
x_3_10_1_0 0
x_3_10_1_1 0
x_3_10_1_2 0
x_3_10_1_3 0
x_3_10_1_4 0
x_3_10_1_5 0
x_3_11_0_0 0
x_3_11_0_1 0
x_3_11_0_2 0
x_3_11_0_3 0
x_3_11_0_4 0
x_3_11_0_5 0
x_3_11_1_0 0
x_3_11_1_1 0
x_3_11_1_2 0
x_3_11_1_3 0
x_3_11_1_4 0
x_3_11_1_5 0
x_3_12_0_0 0
x_3_12_0_1 0
x_3_12_0_2 0
x_3_12_0_3 0
x_3_12_0_4 0
x_3_12_0_5 0
x_3_12_1_0 0
x_3_12_1_1 0
x_3_12_1_2 0
x_3_12_1_3 0
x_3_12_1_4 1
x_3_12_1_5 0
x_3_13_0_0 0
x_3_13_0_1 0
x_3_13_0_2 0
x_3_13_0_3 0
x_3_13_0_4 0
x_3_13_0_5 0
x_3_13_1_0 0
x_3_13_1_1 1
x_3_13_1_2 0
x_3_13_1_3 1
x_3_13_1_4 0
x_3_13_1_5 0
x_3_14_0_0 0
x_3_14_0_1 0
x_3_14_0_2 0
x_3_14_0_3 0
x_3_14_0_4 0
x_3_14_0_5 0
x_3_14_1_0 0
x_3_14_1_1 0
x_3_14_1_2 0
x_3_14_1_3 0
x_3_14_1_4 0
x_3_14_1_5 0
x_3_15_0_0 0
x_3_15_0_1 0
x_3_15_0_2 0
x_3_15_0_3 0
x_3_15_0_4 0
x_3_15_0_5 0
x_3_15_1_0 0
x_3_15_1_1 0
x_3_15_1_2 0
x_3_15_1_3 0
x_3_15_1_4 1
x_3_15_1_5 0
x_3_16_0_0 0
x_3_16_0_1 0
x_3_16_0_2 0
x_3_16_0_3 0
x_3_16_0_4 0
x_3_16_0_5 0
x_3_16_1_0 0
x_3_16_1_1 0
x_3_16_1_2 0
x_3_16_1_3 0
x_3_16_1_4 0
x_3_16_1_5 0
x_3_17_0_0 0
x_3_17_0_1 0
x_3_17_0_2 0
x_3_17_0_3 0
x_3_17_0_4 0
x_3_17_0_5 0
x_3_17_1_0 0
x_3_17_1_1 0
x_3_17_1_2 0
x_3_17_1_3 0
x_3_17_1_4 0
x_3_17_1_5 0
x_3_18_0_0 0
x_3_18_0_1 0
x_3_18_0_2 0
x_3_18_0_3 0
x_3_18_0_4 0
x_3_18_0_5 0
x_3_18_1_0 0
x_3_18_1_1 0
x_3_18_1_2 0
x_3_18_1_3 0
x_3_18_1_4 0
x_3_18_1_5 0
x_3_19_0_0 0
x_3_19_0_1 0
x_3_19_0_2 0
x_3_19_0_3 0
x_3_19_0_4 0
x_3_19_0_5 0
x_3_19_1_0 0
x_3_19_1_1 0
x_3_19_1_2 0
x_3_19_1_3 0
x_3_19_1_4 0
x_3_19_1_5 0
x_3_20_0_0 0
x_3_20_0_1 0
x_3_20_0_2 0
x_3_20_0_3 0
x_3_20_0_4 0
x_3_20_0_5 0
x_3_20_1_0 0
x_3_20_1_1 0
x_3_20_1_2 0
x_3_20_1_3 0
x_3_20_1_4 0
x_3_20_1_5 0
x_4_5_0_0 0
x_4_5_0_1 0
x_4_5_0_2 0
x_4_5_0_3 0
x_4_5_0_4 0
x_4_5_0_5 0
x_4_5_1_0 0
x_4_5_1_1 0
x_4_5_1_2 0
x_4_5_1_3 0
x_4_5_1_4 0
x_4_5_1_5 0
x_4_6_0_0 0
x_4_6_0_1 0
x_4_6_0_2 0
x_4_6_0_3 0
x_4_6_0_4 0
x_4_6_0_5 0
x_4_6_1_0 0
x_4_6_1_1 0
x_4_6_1_2 0
x_4_6_1_3 0
x_4_6_1_4 0
x_4_6_1_5 0
x_4_7_0_0 0
x_4_7_0_1 0
x_4_7_0_2 0
x_4_7_0_3 0
x_4_7_0_4 0
x_4_7_0_5 0
x_4_7_1_0 0
x_4_7_1_1 0
x_4_7_1_2 0
x_4_7_1_3 0
x_4_7_1_4 0
x_4_7_1_5 0
x_4_8_0_0 0
x_4_8_0_1 0
x_4_8_0_2 0
x_4_8_0_3 0
x_4_8_0_4 0
x_4_8_0_5 0
x_4_8_1_0 0
x_4_8_1_1 0
x_4_8_1_2 0
x_4_8_1_3 0
x_4_8_1_4 0
x_4_8_1_5 0
x_4_9_0_0 0
x_4_9_0_1 0
x_4_9_0_2 0
x_4_9_0_3 0
x_4_9_0_4 0
x_4_9_0_5 0
x_4_9_1_0 0
x_4_9_1_1 0
x_4_9_1_2 0
x_4_9_1_3 0
x_4_9_1_4 0
x_4_9_1_5 0
x_4_10_0_0 0
x_4_10_0_1 0
x_4_10_0_2 0
x_4_10_0_3 0
x_4_10_0_4 0
x_4_10_0_5 0
x_4_10_1_0 0
x_4_10_1_1 0
x_4_10_1_2 0
x_4_10_1_3 0
x_4_10_1_4 0
x_4_10_1_5 0
x_4_11_0_0 0
x_4_11_0_1 0
x_4_11_0_2 0
x_4_11_0_3 0
x_4_11_0_4 0
x_4_11_0_5 0
x_4_11_1_0 0
x_4_11_1_1 0
x_4_11_1_2 0
x_4_11_1_3 0
x_4_11_1_4 0
x_4_11_1_5 0
x_4_12_0_0 0
x_4_12_0_1 0
x_4_12_0_2 0
x_4_12_0_3 0
x_4_12_0_4 0
x_4_12_0_5 0
x_4_12_1_0 0
x_4_12_1_1 0
x_4_12_1_2 0
x_4_12_1_3 0
x_4_12_1_4 0
x_4_12_1_5 0
x_4_13_0_0 0
x_4_13_0_1 0
x_4_13_0_2 0
x_4_13_0_3 0
x_4_13_0_4 0
x_4_13_0_5 0
x_4_13_1_0 0
x_4_13_1_1 0
x_4_13_1_2 0
x_4_13_1_3 0
x_4_13_1_4 0
x_4_13_1_5 0
x_4_14_0_0 0
x_4_14_0_1 0
x_4_14_0_2 0
x_4_14_0_3 0
x_4_14_0_4 0
x_4_14_0_5 0
x_4_14_1_0 0
x_4_14_1_1 0
x_4_14_1_2 0
x_4_14_1_3 0
x_4_14_1_4 0
x_4_14_1_5 0
x_4_15_0_0 0
x_4_15_0_1 0
x_4_15_0_2 0
x_4_15_0_3 0
x_4_15_0_4 0
x_4_15_0_5 0
x_4_15_1_0 0
x_4_15_1_1 0
x_4_15_1_2 0
x_4_15_1_3 0
x_4_15_1_4 0
x_4_15_1_5 0
x_4_16_0_0 0
x_4_16_0_1 0
x_4_16_0_2 0
x_4_16_0_3 0
x_4_16_0_4 0
x_4_16_0_5 0
x_4_16_1_0 0
x_4_16_1_1 0
x_4_16_1_2 0
x_4_16_1_3 0
x_4_16_1_4 0
x_4_16_1_5 0
x_4_17_0_0 0
x_4_17_0_1 0
x_4_17_0_2 0
x_4_17_0_3 0
x_4_17_0_4 0
x_4_17_0_5 0
x_4_17_1_0 0
x_4_17_1_1 0
x_4_17_1_2 0
x_4_17_1_3 0
x_4_17_1_4 0
x_4_17_1_5 0
x_4_18_0_0 0
x_4_18_0_1 0
x_4_18_0_2 0
x_4_18_0_3 0
x_4_18_0_4 0
x_4_18_0_5 0
x_4_18_1_0 0
x_4_18_1_1 0
x_4_18_1_2 0
x_4_18_1_3 0
x_4_18_1_4 0
x_4_18_1_5 0
x_4_19_0_0 0
x_4_19_0_1 0
x_4_19_0_2 0
x_4_19_0_3 0
x_4_19_0_4 0
x_4_19_0_5 0
x_4_19_1_0 0
x_4_19_1_1 0
x_4_19_1_2 0
x_4_19_1_3 0
x_4_19_1_4 0
x_4_19_1_5 0
x_4_20_0_0 0
x_4_20_0_1 1
x_4_20_0_2 0
x_4_20_0_3 0
x_4_20_0_4 1
x_4_20_0_5 0
x_4_20_1_0 0
x_4_20_1_1 0
x_4_20_1_2 0
x_4_20_1_3 0
x_4_20_1_4 0
x_4_20_1_5 0
x_5_6_0_0 0
x_5_6_0_1 0
x_5_6_0_2 0
x_5_6_0_3 0
x_5_6_0_4 0
x_5_6_0_5 0
x_5_6_1_0 0
x_5_6_1_1 0
x_5_6_1_2 0
x_5_6_1_3 0
x_5_6_1_4 0
x_5_6_1_5 0
x_5_7_0_0 0
x_5_7_0_1 0
x_5_7_0_2 0
x_5_7_0_3 0
x_5_7_0_4 0
x_5_7_0_5 0
x_5_7_1_0 0
x_5_7_1_1 0
x_5_7_1_2 0
x_5_7_1_3 0
x_5_7_1_4 0
x_5_7_1_5 0
x_5_8_0_0 0
x_5_8_0_1 0
x_5_8_0_2 0
x_5_8_0_3 0
x_5_8_0_4 0
x_5_8_0_5 0
x_5_8_1_0 0
x_5_8_1_1 0
x_5_8_1_2 0
x_5_8_1_3 0
x_5_8_1_4 0
x_5_8_1_5 0
x_5_9_0_0 0
x_5_9_0_1 0
x_5_9_0_2 0
x_5_9_0_3 0
x_5_9_0_4 0
x_5_9_0_5 0
x_5_9_1_0 0
x_5_9_1_1 0
x_5_9_1_2 0
x_5_9_1_3 0
x_5_9_1_4 0
x_5_9_1_5 0
x_5_10_0_0 0
x_5_10_0_1 0
x_5_10_0_2 0
x_5_10_0_3 0
x_5_10_0_4 0
x_5_10_0_5 0
x_5_10_1_0 0
x_5_10_1_1 0
x_5_10_1_2 0
x_5_10_1_3 0
x_5_10_1_4 0
x_5_10_1_5 0
x_5_11_0_0 0
x_5_11_0_1 0
x_5_11_0_2 0
x_5_11_0_3 0
x_5_11_0_4 0
x_5_11_0_5 0
x_5_11_1_0 0
x_5_11_1_1 0
x_5_11_1_2 0
x_5_11_1_3 0
x_5_11_1_4 1
x_5_11_1_5 0
x_5_12_0_0 0
x_5_12_0_1 0
x_5_12_0_2 0
x_5_12_0_3 0
x_5_12_0_4 0
x_5_12_0_5 0
x_5_12_1_0 0
x_5_12_1_1 0
x_5_12_1_2 0
x_5_12_1_3 0
x_5_12_1_4 0
x_5_12_1_5 0
x_5_13_0_0 0
x_5_13_0_1 0
x_5_13_0_2 0
x_5_13_0_3 0
x_5_13_0_4 0
x_5_13_0_5 0
x_5_13_1_0 0
x_5_13_1_1 0
x_5_13_1_2 0
x_5_13_1_3 0
x_5_13_1_4 0
x_5_13_1_5 0
x_5_14_0_0 0
x_5_14_0_1 0
x_5_14_0_2 1
x_5_14_0_3 0
x_5_14_0_4 0
x_5_14_0_5 0
x_5_14_1_0 0
x_5_14_1_1 0
x_5_14_1_2 0
x_5_14_1_3 0
x_5_14_1_4 1
x_5_14_1_5 0
x_5_15_0_0 0
x_5_15_0_1 0
x_5_15_0_2 0
x_5_15_0_3 0
x_5_15_0_4 0
x_5_15_0_5 0
x_5_15_1_0 0
x_5_15_1_1 0
x_5_15_1_2 0
x_5_15_1_3 0
x_5_15_1_4 0
x_5_15_1_5 0
x_5_16_0_0 0
x_5_16_0_1 0
x_5_16_0_2 0
x_5_16_0_3 0
x_5_16_0_4 0
x_5_16_0_5 0
x_5_16_1_0 0
x_5_16_1_1 0
x_5_16_1_2 0
x_5_16_1_3 0
x_5_16_1_4 0
x_5_16_1_5 0
x_5_17_0_0 0
x_5_17_0_1 0
x_5_17_0_2 1
x_5_17_0_3 0
x_5_17_0_4 0
x_5_17_0_5 0
x_5_17_1_0 0
x_5_17_1_1 0
x_5_17_1_2 0
x_5_17_1_3 0
x_5_17_1_4 0
x_5_17_1_5 0
x_5_18_0_0 0
x_5_18_0_1 0
x_5_18_0_2 0
x_5_18_0_3 0
x_5_18_0_4 0
x_5_18_0_5 0
x_5_18_1_0 0
x_5_18_1_1 0
x_5_18_1_2 0
x_5_18_1_3 0
x_5_18_1_4 0
x_5_18_1_5 0
x_5_19_0_0 0
x_5_19_0_1 0
x_5_19_0_2 0
x_5_19_0_3 0
x_5_19_0_4 0
x_5_19_0_5 0
x_5_19_1_0 0
x_5_19_1_1 0
x_5_19_1_2 0
x_5_19_1_3 0
x_5_19_1_4 0
x_5_19_1_5 0
x_5_20_0_0 0
x_5_20_0_1 0
x_5_20_0_2 0
x_5_20_0_3 0
x_5_20_0_4 0
x_5_20_0_5 0
x_5_20_1_0 0
x_5_20_1_1 0
x_5_20_1_2 0
x_5_20_1_3 0
x_5_20_1_4 0
x_5_20_1_5 0
x_6_7_0_0 0
x_6_7_0_1 0
x_6_7_0_2 0
x_6_7_0_3 0
x_6_7_0_4 1
x_6_7_0_5 0
x_6_7_1_0 0
x_6_7_1_1 0
x_6_7_1_2 0
x_6_7_1_3 0
x_6_7_1_4 0
x_6_7_1_5 0
x_6_8_0_0 0
x_6_8_0_1 0
x_6_8_0_2 0
x_6_8_0_3 0
x_6_8_0_4 0
x_6_8_0_5 0
x_6_8_1_0 0
x_6_8_1_1 0
x_6_8_1_2 0
x_6_8_1_3 0
x_6_8_1_4 0
x_6_8_1_5 0
x_6_9_0_0 0
x_6_9_0_1 0
x_6_9_0_2 1
x_6_9_0_3 0
x_6_9_0_4 1
x_6_9_0_5 0
x_6_9_1_0 0
x_6_9_1_1 0
x_6_9_1_2 0
x_6_9_1_3 0
x_6_9_1_4 0
x_6_9_1_5 0
x_6_10_0_0 0
x_6_10_0_1 0
x_6_10_0_2 0
x_6_10_0_3 0
x_6_10_0_4 0
x_6_10_0_5 0
x_6_10_1_0 0
x_6_10_1_1 0
x_6_10_1_2 0
x_6_10_1_3 0
x_6_10_1_4 0
x_6_10_1_5 0
x_6_11_0_0 0
x_6_11_0_1 0
x_6_11_0_2 0
x_6_11_0_3 0
x_6_11_0_4 0
x_6_11_0_5 0
x_6_11_1_0 0
x_6_11_1_1 0
x_6_11_1_2 0
x_6_11_1_3 0
x_6_11_1_4 0
x_6_11_1_5 0
x_6_12_0_0 0
x_6_12_0_1 0
x_6_12_0_2 0
x_6_12_0_3 0
x_6_12_0_4 0
x_6_12_0_5 0
x_6_12_1_0 0
x_6_12_1_1 0
x_6_12_1_2 0
x_6_12_1_3 0
x_6_12_1_4 0
x_6_12_1_5 0
x_6_13_0_0 0
x_6_13_0_1 0
x_6_13_0_2 0
x_6_13_0_3 0
x_6_13_0_4 0
x_6_13_0_5 0
x_6_13_1_0 0
x_6_13_1_1 0
x_6_13_1_2 0
x_6_13_1_3 0
x_6_13_1_4 0
x_6_13_1_5 0
x_6_14_0_0 0
x_6_14_0_1 0
x_6_14_0_2 0
x_6_14_0_3 0
x_6_14_0_4 0
x_6_14_0_5 0
x_6_14_1_0 0
x_6_14_1_1 0
x_6_14_1_2 0
x_6_14_1_3 0
x_6_14_1_4 0
x_6_14_1_5 0
x_6_15_0_0 0
x_6_15_0_1 0
x_6_15_0_2 1
x_6_15_0_3 0
x_6_15_0_4 0
x_6_15_0_5 0
x_6_15_1_0 0
x_6_15_1_1 0
x_6_15_1_2 0
x_6_15_1_3 0
x_6_15_1_4 0
x_6_15_1_5 0
x_6_16_0_0 0
x_6_16_0_1 0
x_6_16_0_2 0
x_6_16_0_3 0
x_6_16_0_4 0
x_6_16_0_5 0
x_6_16_1_0 0
x_6_16_1_1 0
x_6_16_1_2 0
x_6_16_1_3 0
x_6_16_1_4 0
x_6_16_1_5 0
x_6_17_0_0 0
x_6_17_0_1 0
x_6_17_0_2 0
x_6_17_0_3 0
x_6_17_0_4 0
x_6_17_0_5 0
x_6_17_1_0 0
x_6_17_1_1 0
x_6_17_1_2 0
x_6_17_1_3 0
x_6_17_1_4 0
x_6_17_1_5 0
x_6_18_0_0 0
x_6_18_0_1 0
x_6_18_0_2 0
x_6_18_0_3 0
x_6_18_0_4 0
x_6_18_0_5 0
x_6_18_1_0 0
x_6_18_1_1 0
x_6_18_1_2 0
x_6_18_1_3 0
x_6_18_1_4 0
x_6_18_1_5 0
x_6_19_0_0 0
x_6_19_0_1 0
x_6_19_0_2 0
x_6_19_0_3 0
x_6_19_0_4 0
x_6_19_0_5 0
x_6_19_1_0 0
x_6_19_1_1 0
x_6_19_1_2 0
x_6_19_1_3 0
x_6_19_1_4 0
x_6_19_1_5 0
x_6_20_0_0 0
x_6_20_0_1 0
x_6_20_0_2 0
x_6_20_0_3 0
x_6_20_0_4 0
x_6_20_0_5 0
x_6_20_1_0 0
x_6_20_1_1 0
x_6_20_1_2 0
x_6_20_1_3 0
x_6_20_1_4 0
x_6_20_1_5 0
x_7_8_0_0 0
x_7_8_0_1 0
x_7_8_0_2 0
x_7_8_0_3 0
x_7_8_0_4 0
x_7_8_0_5 0
x_7_8_1_0 0
x_7_8_1_1 0
x_7_8_1_2 0
x_7_8_1_3 0
x_7_8_1_4 0
x_7_8_1_5 0
x_7_9_0_0 0
x_7_9_0_1 0
x_7_9_0_2 0
x_7_9_0_3 0
x_7_9_0_4 0
x_7_9_0_5 0
x_7_9_1_0 0
x_7_9_1_1 0
x_7_9_1_2 0
x_7_9_1_3 0
x_7_9_1_4 0
x_7_9_1_5 0
x_7_10_0_0 0
x_7_10_0_1 0
x_7_10_0_2 0
x_7_10_0_3 1
x_7_10_0_4 0
x_7_10_0_5 0
x_7_10_1_0 0
x_7_10_1_1 0
x_7_10_1_2 0
x_7_10_1_3 0
x_7_10_1_4 0
x_7_10_1_5 0
x_7_11_0_0 0
x_7_11_0_1 0
x_7_11_0_2 0
x_7_11_0_3 0
x_7_11_0_4 0
x_7_11_0_5 0
x_7_11_1_0 0
x_7_11_1_1 0
x_7_11_1_2 0
x_7_11_1_3 0
x_7_11_1_4 0
x_7_11_1_5 0
x_7_12_0_0 0
x_7_12_0_1 0
x_7_12_0_2 0
x_7_12_0_3 0
x_7_12_0_4 0
x_7_12_0_5 0
x_7_12_1_0 0
x_7_12_1_1 0
x_7_12_1_2 0
x_7_12_1_3 0
x_7_12_1_4 0
x_7_12_1_5 0
x_7_13_0_0 0
x_7_13_0_1 0
x_7_13_0_2 0
x_7_13_0_3 0
x_7_13_0_4 0
x_7_13_0_5 0
x_7_13_1_0 0
x_7_13_1_1 0
x_7_13_1_2 0
x_7_13_1_3 0
x_7_13_1_4 0
x_7_13_1_5 0
x_7_14_0_0 0
x_7_14_0_1 0
x_7_14_0_2 0
x_7_14_0_3 0
x_7_14_0_4 0
x_7_14_0_5 0
x_7_14_1_0 0
x_7_14_1_1 0
x_7_14_1_2 0
x_7_14_1_3 0
x_7_14_1_4 0
x_7_14_1_5 0
x_7_15_0_0 0
x_7_15_0_1 0
x_7_15_0_2 0
x_7_15_0_3 0
x_7_15_0_4 0
x_7_15_0_5 0
x_7_15_1_0 0
x_7_15_1_1 0
x_7_15_1_2 0
x_7_15_1_3 0
x_7_15_1_4 0
x_7_15_1_5 0
x_7_16_0_0 0
x_7_16_0_1 0
x_7_16_0_2 0
x_7_16_0_3 0
x_7_16_0_4 0
x_7_16_0_5 0
x_7_16_1_0 0
x_7_16_1_1 0
x_7_16_1_2 0
x_7_16_1_3 0
x_7_16_1_4 0
x_7_16_1_5 0
x_7_17_0_0 0
x_7_17_0_1 0
x_7_17_0_2 0
x_7_17_0_3 0
x_7_17_0_4 0
x_7_17_0_5 0
x_7_17_1_0 0
x_7_17_1_1 1
x_7_17_1_2 0
x_7_17_1_3 0
x_7_17_1_4 0
x_7_17_1_5 0
x_7_18_0_0 0
x_7_18_0_1 0
x_7_18_0_2 0
x_7_18_0_3 0
x_7_18_0_4 0
x_7_18_0_5 0
x_7_18_1_0 0
x_7_18_1_1 0
x_7_18_1_2 0
x_7_18_1_3 0
x_7_18_1_4 0
x_7_18_1_5 0
x_7_19_0_0 0
x_7_19_0_1 0
x_7_19_0_2 0
x_7_19_0_3 1
x_7_19_0_4 0
x_7_19_0_5 0
x_7_19_1_0 0
x_7_19_1_1 0
x_7_19_1_2 0
x_7_19_1_3 0
x_7_19_1_4 0
x_7_19_1_5 0
x_7_20_0_0 0
x_7_20_0_1 0
x_7_20_0_2 0
x_7_20_0_3 0
x_7_20_0_4 0
x_7_20_0_5 0
x_7_20_1_0 0
x_7_20_1_1 0
x_7_20_1_2 0
x_7_20_1_3 0
x_7_20_1_4 0
x_7_20_1_5 0
x_8_9_0_0 0
x_8_9_0_1 0
x_8_9_0_2 0
x_8_9_0_3 0
x_8_9_0_4 1
x_8_9_0_5 0
x_8_9_1_0 0
x_8_9_1_1 0
x_8_9_1_2 0
x_8_9_1_3 0
x_8_9_1_4 0
x_8_9_1_5 0
x_8_10_0_0 0
x_8_10_0_1 0
x_8_10_0_2 0
x_8_10_0_3 0
x_8_10_0_4 0
x_8_10_0_5 0
x_8_10_1_0 0
x_8_10_1_1 0
x_8_10_1_2 0
x_8_10_1_3 0
x_8_10_1_4 0
x_8_10_1_5 0
x_8_11_0_0 0
x_8_11_0_1 0
x_8_11_0_2 0
x_8_11_0_3 0
x_8_11_0_4 0
x_8_11_0_5 0
x_8_11_1_0 0
x_8_11_1_1 0
x_8_11_1_2 0
x_8_11_1_3 0
x_8_11_1_4 0
x_8_11_1_5 0
x_8_12_0_0 0
x_8_12_0_1 1
x_8_12_0_2 0
x_8_12_0_3 0
x_8_12_0_4 0
x_8_12_0_5 0
x_8_12_1_0 0
x_8_12_1_1 0
x_8_12_1_2 0
x_8_12_1_3 1
x_8_12_1_4 0
x_8_12_1_5 0
x_8_13_0_0 0
x_8_13_0_1 0
x_8_13_0_2 0
x_8_13_0_3 0
x_8_13_0_4 0
x_8_13_0_5 0
x_8_13_1_0 0
x_8_13_1_1 0
x_8_13_1_2 0
x_8_13_1_3 0
x_8_13_1_4 0
x_8_13_1_5 0
x_8_14_0_0 0
x_8_14_0_1 0
x_8_14_0_2 0
x_8_14_0_3 0
x_8_14_0_4 0
x_8_14_0_5 0
x_8_14_1_0 0
x_8_14_1_1 0
x_8_14_1_2 0
x_8_14_1_3 0
x_8_14_1_4 0
x_8_14_1_5 0
x_8_15_0_0 0
x_8_15_0_1 0
x_8_15_0_2 0
x_8_15_0_3 0
x_8_15_0_4 0
x_8_15_0_5 0
x_8_15_1_0 0
x_8_15_1_1 0
x_8_15_1_2 0
x_8_15_1_3 0
x_8_15_1_4 0
x_8_15_1_5 0
x_8_16_0_0 0
x_8_16_0_1 0
x_8_16_0_2 0
x_8_16_0_3 0
x_8_16_0_4 0
x_8_16_0_5 0
x_8_16_1_0 0
x_8_16_1_1 0
x_8_16_1_2 0
x_8_16_1_3 0
x_8_16_1_4 0
x_8_16_1_5 0
x_8_17_0_0 0
x_8_17_0_1 0
x_8_17_0_2 0
x_8_17_0_3 0
x_8_17_0_4 0
x_8_17_0_5 0
x_8_17_1_0 0
x_8_17_1_1 0
x_8_17_1_2 0
x_8_17_1_3 0
x_8_17_1_4 0
x_8_17_1_5 0
x_8_18_0_0 0
x_8_18_0_1 0
x_8_18_0_2 0
x_8_18_0_3 0
x_8_18_0_4 0
x_8_18_0_5 0
x_8_18_1_0 0
x_8_18_1_1 0
x_8_18_1_2 0
x_8_18_1_3 0
x_8_18_1_4 0
x_8_18_1_5 0
x_8_19_0_0 0
x_8_19_0_1 0
x_8_19_0_2 0
x_8_19_0_3 0
x_8_19_0_4 0
x_8_19_0_5 0
x_8_19_1_0 0
x_8_19_1_1 0
x_8_19_1_2 0
x_8_19_1_3 0
x_8_19_1_4 0
x_8_19_1_5 0
x_8_20_0_0 0
x_8_20_0_1 0
x_8_20_0_2 0
x_8_20_0_3 0
x_8_20_0_4 0
x_8_20_0_5 0
x_8_20_1_0 0
x_8_20_1_1 0
x_8_20_1_2 0
x_8_20_1_3 0
x_8_20_1_4 0
x_8_20_1_5 0
x_9_10_0_0 0
x_9_10_0_1 0
x_9_10_0_2 0
x_9_10_0_3 0
x_9_10_0_4 0
x_9_10_0_5 0
x_9_10_1_0 0
x_9_10_1_1 0
x_9_10_1_2 0
x_9_10_1_3 0
x_9_10_1_4 0
x_9_10_1_5 0
x_9_11_0_0 0
x_9_11_0_1 0
x_9_11_0_2 0
x_9_11_0_3 0
x_9_11_0_4 0
x_9_11_0_5 0
x_9_11_1_0 0
x_9_11_1_1 0
x_9_11_1_2 0
x_9_11_1_3 0
x_9_11_1_4 0
x_9_11_1_5 0
x_9_12_0_0 0
x_9_12_0_1 0
x_9_12_0_2 0
x_9_12_0_3 0
x_9_12_0_4 0
x_9_12_0_5 0
x_9_12_1_0 0
x_9_12_1_1 0
x_9_12_1_2 0
x_9_12_1_3 0
x_9_12_1_4 0
x_9_12_1_5 0
x_9_13_0_0 0
x_9_13_0_1 0
x_9_13_0_2 0
x_9_13_0_3 0
x_9_13_0_4 0
x_9_13_0_5 0
x_9_13_1_0 0
x_9_13_1_1 0
x_9_13_1_2 0
x_9_13_1_3 0
x_9_13_1_4 0
x_9_13_1_5 0
x_9_14_0_0 0
x_9_14_0_1 0
x_9_14_0_2 0
x_9_14_0_3 0
x_9_14_0_4 0
x_9_14_0_5 0
x_9_14_1_0 0
x_9_14_1_1 0
x_9_14_1_2 0
x_9_14_1_3 0
x_9_14_1_4 0
x_9_14_1_5 0
x_9_15_0_0 0
x_9_15_0_1 0
x_9_15_0_2 0
x_9_15_0_3 0
x_9_15_0_4 0
x_9_15_0_5 0
x_9_15_1_0 0
x_9_15_1_1 1
x_9_15_1_2 0
x_9_15_1_3 0
x_9_15_1_4 0
x_9_15_1_5 0
x_9_16_0_0 0
x_9_16_0_1 0
x_9_16_0_2 0
x_9_16_0_3 0
x_9_16_0_4 0
x_9_16_0_5 0
x_9_16_1_0 0
x_9_16_1_1 0
x_9_16_1_2 0
x_9_16_1_3 0
x_9_16_1_4 0
x_9_16_1_5 0
x_9_17_0_0 0
x_9_17_0_1 0
x_9_17_0_2 0
x_9_17_0_3 0
x_9_17_0_4 0
x_9_17_0_5 0
x_9_17_1_0 0
x_9_17_1_1 0
x_9_17_1_2 0
x_9_17_1_3 0
x_9_17_1_4 0
x_9_17_1_5 0
x_9_18_0_0 0
x_9_18_0_1 0
x_9_18_0_2 0
x_9_18_0_3 0
x_9_18_0_4 0
x_9_18_0_5 0
x_9_18_1_0 0
x_9_18_1_1 0
x_9_18_1_2 0
x_9_18_1_3 0
x_9_18_1_4 0
x_9_18_1_5 0
x_9_19_0_0 0
x_9_19_0_1 0
x_9_19_0_2 0
x_9_19_0_3 0
x_9_19_0_4 0
x_9_19_0_5 0
x_9_19_1_0 0
x_9_19_1_1 0
x_9_19_1_2 0
x_9_19_1_3 0
x_9_19_1_4 0
x_9_19_1_5 0
x_9_20_0_0 0
x_9_20_0_1 0
x_9_20_0_2 0
x_9_20_0_3 0
x_9_20_0_4 0
x_9_20_0_5 0
x_9_20_1_0 0
x_9_20_1_1 0
x_9_20_1_2 0
x_9_20_1_3 0
x_9_20_1_4 0
x_9_20_1_5 0
x_10_11_0_0 0
x_10_11_0_1 0
x_10_11_0_2 0
x_10_11_0_3 0
x_10_11_0_4 0
x_10_11_0_5 0
x_10_11_1_0 0
x_10_11_1_1 0
x_10_11_1_2 0
x_10_11_1_3 0
x_10_11_1_4 0
x_10_11_1_5 0
x_10_12_0_0 0
x_10_12_0_1 0
x_10_12_0_2 0
x_10_12_0_3 0
x_10_12_0_4 0
x_10_12_0_5 0
x_10_12_1_0 0
x_10_12_1_1 0
x_10_12_1_2 0
x_10_12_1_3 0
x_10_12_1_4 0
x_10_12_1_5 0
x_10_13_0_0 0
x_10_13_0_1 0
x_10_13_0_2 0
x_10_13_0_3 0
x_10_13_0_4 0
x_10_13_0_5 0
x_10_13_1_0 0
x_10_13_1_1 0
x_10_13_1_2 0
x_10_13_1_3 0
x_10_13_1_4 0
x_10_13_1_5 0
x_10_14_0_0 0
x_10_14_0_1 0
x_10_14_0_2 0
x_10_14_0_3 0
x_10_14_0_4 0
x_10_14_0_5 0
x_10_14_1_0 0
x_10_14_1_1 0
x_10_14_1_2 0
x_10_14_1_3 0
x_10_14_1_4 0
x_10_14_1_5 0
x_10_15_0_0 0
x_10_15_0_1 0
x_10_15_0_2 0
x_10_15_0_3 0
x_10_15_0_4 0
x_10_15_0_5 0
x_10_15_1_0 0
x_10_15_1_1 0
x_10_15_1_2 0
x_10_15_1_3 0
x_10_15_1_4 0
x_10_15_1_5 0
x_10_16_0_0 0
x_10_16_0_1 0
x_10_16_0_2 0
x_10_16_0_3 0
x_10_16_0_4 0
x_10_16_0_5 0
x_10_16_1_0 0
x_10_16_1_1 0
x_10_16_1_2 0
x_10_16_1_3 0
x_10_16_1_4 0
x_10_16_1_5 0
x_10_17_0_0 0
x_10_17_0_1 0
x_10_17_0_2 0
x_10_17_0_3 0
x_10_17_0_4 0
x_10_17_0_5 0
x_10_17_1_0 0
x_10_17_1_1 0
x_10_17_1_2 0
x_10_17_1_3 0
x_10_17_1_4 0
x_10_17_1_5 0
x_10_18_0_0 0
x_10_18_0_1 0
x_10_18_0_2 0
x_10_18_0_3 0
x_10_18_0_4 0
x_10_18_0_5 0
x_10_18_1_0 0
x_10_18_1_1 0
x_10_18_1_2 0
x_10_18_1_3 0
x_10_18_1_4 0
x_10_18_1_5 0
x_10_19_0_0 0
x_10_19_0_1 0
x_10_19_0_2 0
x_10_19_0_3 0
x_10_19_0_4 0
x_10_19_0_5 0
x_10_19_1_0 0
x_10_19_1_1 0
x_10_19_1_2 0
x_10_19_1_3 0
x_10_19_1_4 0
x_10_19_1_5 0
x_10_20_0_0 0
x_10_20_0_1 0
x_10_20_0_2 0
x_10_20_0_3 0
x_10_20_0_4 0
x_10_20_0_5 0
x_10_20_1_0 0
x_10_20_1_1 0
x_10_20_1_2 0
x_10_20_1_3 0
x_10_20_1_4 0
x_10_20_1_5 0
x_11_12_0_0 0
x_11_12_0_1 0
x_11_12_0_2 0
x_11_12_0_3 0
x_11_12_0_4 0
x_11_12_0_5 0
x_11_12_1_0 0
x_11_12_1_1 0
x_11_12_1_2 0
x_11_12_1_3 0
x_11_12_1_4 0
x_11_12_1_5 0
x_11_13_0_0 0
x_11_13_0_1 0
x_11_13_0_2 0
x_11_13_0_3 0
x_11_13_0_4 0
x_11_13_0_5 0
x_11_13_1_0 0
x_11_13_1_1 0
x_11_13_1_2 0
x_11_13_1_3 0
x_11_13_1_4 0
x_11_13_1_5 0
x_11_14_0_0 0
x_11_14_0_1 0
x_11_14_0_2 0
x_11_14_0_3 0
x_11_14_0_4 0
x_11_14_0_5 0
x_11_14_1_0 0
x_11_14_1_1 1
x_11_14_1_2 0
x_11_14_1_3 0
x_11_14_1_4 0
x_11_14_1_5 0
x_11_15_0_0 0
x_11_15_0_1 0
x_11_15_0_2 0
x_11_15_0_3 0
x_11_15_0_4 0
x_11_15_0_5 0
x_11_15_1_0 0
x_11_15_1_1 0
x_11_15_1_2 0
x_11_15_1_3 0
x_11_15_1_4 0
x_11_15_1_5 0
x_11_16_0_0 0
x_11_16_0_1 0
x_11_16_0_2 0
x_11_16_0_3 0
x_11_16_0_4 0
x_11_16_0_5 0
x_11_16_1_0 0
x_11_16_1_1 0
x_11_16_1_2 0
x_11_16_1_3 0
x_11_16_1_4 0
x_11_16_1_5 0
x_11_17_0_0 0
x_11_17_0_1 0
x_11_17_0_2 0
x_11_17_0_3 0
x_11_17_0_4 0
x_11_17_0_5 0
x_11_17_1_0 0
x_11_17_1_1 1
x_11_17_1_2 0
x_11_17_1_3 0
x_11_17_1_4 1
x_11_17_1_5 0
x_11_18_0_0 0
x_11_18_0_1 0
x_11_18_0_2 0
x_11_18_0_3 0
x_11_18_0_4 0
x_11_18_0_5 0
x_11_18_1_0 0
x_11_18_1_1 0
x_11_18_1_2 0
x_11_18_1_3 0
x_11_18_1_4 0
x_11_18_1_5 0
x_11_19_0_0 0
x_11_19_0_1 0
x_11_19_0_2 0
x_11_19_0_3 0
x_11_19_0_4 0
x_11_19_0_5 0
x_11_19_1_0 0
x_11_19_1_1 0
x_11_19_1_2 0
x_11_19_1_3 0
x_11_19_1_4 0
x_11_19_1_5 0
x_11_20_0_0 0
x_11_20_0_1 0
x_11_20_0_2 0
x_11_20_0_3 0
x_11_20_0_4 0
x_11_20_0_5 0
x_11_20_1_0 0
x_11_20_1_1 0
x_11_20_1_2 0
x_11_20_1_3 0
x_11_20_1_4 0
x_11_20_1_5 0
x_12_13_0_0 0
x_12_13_0_1 0
x_12_13_0_2 0
x_12_13_0_3 0
x_12_13_0_4 0
x_12_13_0_5 0
x_12_13_1_0 0
x_12_13_1_1 0
x_12_13_1_2 0
x_12_13_1_3 0
x_12_13_1_4 1
x_12_13_1_5 0
x_12_14_0_0 0
x_12_14_0_1 0
x_12_14_0_2 0
x_12_14_0_3 0
x_12_14_0_4 0
x_12_14_0_5 0
x_12_14_1_0 0
x_12_14_1_1 0
x_12_14_1_2 0
x_12_14_1_3 0
x_12_14_1_4 0
x_12_14_1_5 0
x_12_15_0_0 0
x_12_15_0_1 0
x_12_15_0_2 0
x_12_15_0_3 0
x_12_15_0_4 0
x_12_15_0_5 0
x_12_15_1_0 0
x_12_15_1_1 0
x_12_15_1_2 0
x_12_15_1_3 0
x_12_15_1_4 0
x_12_15_1_5 0
x_12_16_0_0 0
x_12_16_0_1 0
x_12_16_0_2 0
x_12_16_0_3 0
x_12_16_0_4 0
x_12_16_0_5 0
x_12_16_1_0 0
x_12_16_1_1 0
x_12_16_1_2 0
x_12_16_1_3 0
x_12_16_1_4 0
x_12_16_1_5 0
x_12_17_0_0 0
x_12_17_0_1 0
x_12_17_0_2 0
x_12_17_0_3 0
x_12_17_0_4 0
x_12_17_0_5 0
x_12_17_1_0 0
x_12_17_1_1 0
x_12_17_1_2 0
x_12_17_1_3 0
x_12_17_1_4 0
x_12_17_1_5 0
x_12_18_0_0 0
x_12_18_0_1 0
x_12_18_0_2 0
x_12_18_0_3 0
x_12_18_0_4 0
x_12_18_0_5 0
x_12_18_1_0 0
x_12_18_1_1 0
x_12_18_1_2 0
x_12_18_1_3 0
x_12_18_1_4 0
x_12_18_1_5 0
x_12_19_0_0 0
x_12_19_0_1 0
x_12_19_0_2 0
x_12_19_0_3 0
x_12_19_0_4 0
x_12_19_0_5 0
x_12_19_1_0 0
x_12_19_1_1 0
x_12_19_1_2 0
x_12_19_1_3 0
x_12_19_1_4 0
x_12_19_1_5 0
x_12_20_0_0 0
x_12_20_0_1 0
x_12_20_0_2 0
x_12_20_0_3 0
x_12_20_0_4 0
x_12_20_0_5 0
x_12_20_1_0 0
x_12_20_1_1 0
x_12_20_1_2 0
x_12_20_1_3 0
x_12_20_1_4 0
x_12_20_1_5 0
x_13_14_0_0 0
x_13_14_0_1 0
x_13_14_0_2 0
x_13_14_0_3 0
x_13_14_0_4 0
x_13_14_0_5 0
x_13_14_1_0 0
x_13_14_1_1 0
x_13_14_1_2 0
x_13_14_1_3 0
x_13_14_1_4 0
x_13_14_1_5 0
x_13_15_0_0 0
x_13_15_0_1 0
x_13_15_0_2 0
x_13_15_0_3 0
x_13_15_0_4 0
x_13_15_0_5 0
x_13_15_1_0 0
x_13_15_1_1 0
x_13_15_1_2 0
x_13_15_1_3 0
x_13_15_1_4 0
x_13_15_1_5 0
x_13_16_0_0 0
x_13_16_0_1 0
x_13_16_0_2 0
x_13_16_0_3 0
x_13_16_0_4 0
x_13_16_0_5 0
x_13_16_1_0 0
x_13_16_1_1 0
x_13_16_1_2 0
x_13_16_1_3 0
x_13_16_1_4 0
x_13_16_1_5 0
x_13_17_0_0 0
x_13_17_0_1 0
x_13_17_0_2 0
x_13_17_0_3 0
x_13_17_0_4 0
x_13_17_0_5 0
x_13_17_1_0 0
x_13_17_1_1 0
x_13_17_1_2 0
x_13_17_1_3 0
x_13_17_1_4 0
x_13_17_1_5 0
x_13_18_0_0 0
x_13_18_0_1 0
x_13_18_0_2 0
x_13_18_0_3 0
x_13_18_0_4 0
x_13_18_0_5 0
x_13_18_1_0 0
x_13_18_1_1 0
x_13_18_1_2 0
x_13_18_1_3 0
x_13_18_1_4 0
x_13_18_1_5 0
x_13_19_0_0 0
x_13_19_0_1 0
x_13_19_0_2 0
x_13_19_0_3 0
x_13_19_0_4 0
x_13_19_0_5 0
x_13_19_1_0 0
x_13_19_1_1 0
x_13_19_1_2 0
x_13_19_1_3 0
x_13_19_1_4 0
x_13_19_1_5 0
x_13_20_0_0 0
x_13_20_0_1 0
x_13_20_0_2 0
x_13_20_0_3 0
x_13_20_0_4 0
x_13_20_0_5 0
x_13_20_1_0 0
x_13_20_1_1 0
x_13_20_1_2 0
x_13_20_1_3 0
x_13_20_1_4 0
x_13_20_1_5 0
x_14_15_0_0 0
x_14_15_0_1 0
x_14_15_0_2 1
x_14_15_0_3 0
x_14_15_0_4 0
x_14_15_0_5 0
x_14_15_1_0 0
x_14_15_1_1 1
x_14_15_1_2 0
x_14_15_1_3 0
x_14_15_1_4 1
x_14_15_1_5 0
x_14_16_0_0 0
x_14_16_0_1 0
x_14_16_0_2 0
x_14_16_0_3 0
x_14_16_0_4 0
x_14_16_0_5 0
x_14_16_1_0 0
x_14_16_1_1 0
x_14_16_1_2 0
x_14_16_1_3 0
x_14_16_1_4 0
x_14_16_1_5 0
x_14_17_0_0 0
x_14_17_0_1 0
x_14_17_0_2 0
x_14_17_0_3 0
x_14_17_0_4 0
x_14_17_0_5 0
x_14_17_1_0 0
x_14_17_1_1 0
x_14_17_1_2 0
x_14_17_1_3 0
x_14_17_1_4 0
x_14_17_1_5 0
x_14_18_0_0 0
x_14_18_0_1 0
x_14_18_0_2 0
x_14_18_0_3 0
x_14_18_0_4 0
x_14_18_0_5 0
x_14_18_1_0 0
x_14_18_1_1 0
x_14_18_1_2 0
x_14_18_1_3 0
x_14_18_1_4 0
x_14_18_1_5 0
x_14_19_0_0 0
x_14_19_0_1 0
x_14_19_0_2 0
x_14_19_0_3 0
x_14_19_0_4 0
x_14_19_0_5 0
x_14_19_1_0 0
x_14_19_1_1 0
x_14_19_1_2 0
x_14_19_1_3 0
x_14_19_1_4 0
x_14_19_1_5 0
x_14_20_0_0 0
x_14_20_0_1 0
x_14_20_0_2 0
x_14_20_0_3 0
x_14_20_0_4 0
x_14_20_0_5 0
x_14_20_1_0 0
x_14_20_1_1 0
x_14_20_1_2 0
x_14_20_1_3 0
x_14_20_1_4 0
x_14_20_1_5 0
x_15_16_0_0 0
x_15_16_0_1 0
x_15_16_0_2 0
x_15_16_0_3 0
x_15_16_0_4 0
x_15_16_0_5 0
x_15_16_1_0 0
x_15_16_1_1 0
x_15_16_1_2 0
x_15_16_1_3 0
x_15_16_1_4 0
x_15_16_1_5 0
x_15_17_0_0 0
x_15_17_0_1 0
x_15_17_0_2 0
x_15_17_0_3 0
x_15_17_0_4 0
x_15_17_0_5 0
x_15_17_1_0 0
x_15_17_1_1 0
x_15_17_1_2 0
x_15_17_1_3 0
x_15_17_1_4 0
x_15_17_1_5 0
x_15_18_0_0 0
x_15_18_0_1 0
x_15_18_0_2 0
x_15_18_0_3 0
x_15_18_0_4 0
x_15_18_0_5 0
x_15_18_1_0 0
x_15_18_1_1 0
x_15_18_1_2 0
x_15_18_1_3 0
x_15_18_1_4 0
x_15_18_1_5 0
x_15_19_0_0 0
x_15_19_0_1 0
x_15_19_0_2 0
x_15_19_0_3 0
x_15_19_0_4 0
x_15_19_0_5 0
x_15_19_1_0 0
x_15_19_1_1 0
x_15_19_1_2 0
x_15_19_1_3 0
x_15_19_1_4 0
x_15_19_1_5 0
x_15_20_0_0 0
x_15_20_0_1 0
x_15_20_0_2 0
x_15_20_0_3 0
x_15_20_0_4 0
x_15_20_0_5 0
x_15_20_1_0 0
x_15_20_1_1 0
x_15_20_1_2 0
x_15_20_1_3 0
x_15_20_1_4 0
x_15_20_1_5 0
x_16_17_0_0 0
x_16_17_0_1 0
x_16_17_0_2 0
x_16_17_0_3 0
x_16_17_0_4 0
x_16_17_0_5 0
x_16_17_1_0 0
x_16_17_1_1 0
x_16_17_1_2 0
x_16_17_1_3 0
x_16_17_1_4 0
x_16_17_1_5 0
x_16_18_0_0 0
x_16_18_0_1 0
x_16_18_0_2 0
x_16_18_0_3 0
x_16_18_0_4 0
x_16_18_0_5 0
x_16_18_1_0 0
x_16_18_1_1 0
x_16_18_1_2 0
x_16_18_1_3 0
x_16_18_1_4 0
x_16_18_1_5 0
x_16_19_0_0 0
x_16_19_0_1 1
x_16_19_0_2 0
x_16_19_0_3 0
x_16_19_0_4 0
x_16_19_0_5 0
x_16_19_1_0 0
x_16_19_1_1 0
x_16_19_1_2 0
x_16_19_1_3 0
x_16_19_1_4 0
x_16_19_1_5 0
x_16_20_0_0 0
x_16_20_0_1 1
x_16_20_0_2 0
x_16_20_0_3 0
x_16_20_0_4 1
x_16_20_0_5 0
x_16_20_1_0 0
x_16_20_1_1 0
x_16_20_1_2 0
x_16_20_1_3 0
x_16_20_1_4 0
x_16_20_1_5 0
x_17_18_0_0 0
x_17_18_0_1 0
x_17_18_0_2 0
x_17_18_0_3 0
x_17_18_0_4 0
x_17_18_0_5 0
x_17_18_1_0 0
x_17_18_1_1 0
x_17_18_1_2 0
x_17_18_1_3 0
x_17_18_1_4 0
x_17_18_1_5 0
x_17_19_0_0 0
x_17_19_0_1 0
x_17_19_0_2 0
x_17_19_0_3 0
x_17_19_0_4 0
x_17_19_0_5 0
x_17_19_1_0 0
x_17_19_1_1 0
x_17_19_1_2 0
x_17_19_1_3 0
x_17_19_1_4 0
x_17_19_1_5 0
x_17_20_0_0 0
x_17_20_0_1 0
x_17_20_0_2 0
x_17_20_0_3 0
x_17_20_0_4 0
x_17_20_0_5 0
x_17_20_1_0 0
x_17_20_1_1 0
x_17_20_1_2 0
x_17_20_1_3 0
x_17_20_1_4 0
x_17_20_1_5 0
x_18_19_0_0 0
x_18_19_0_1 0
x_18_19_0_2 0
x_18_19_0_3 1
x_18_19_0_4 0
x_18_19_0_5 0
x_18_19_1_0 0
x_18_19_1_1 0
x_18_19_1_2 0
x_18_19_1_3 0
x_18_19_1_4 0
x_18_19_1_5 0
x_18_20_0_0 0
x_18_20_0_1 0
x_18_20_0_2 0
x_18_20_0_3 0
x_18_20_0_4 0
x_18_20_0_5 0
x_18_20_1_0 0
x_18_20_1_1 0
x_18_20_1_2 0
x_18_20_1_3 0
x_18_20_1_4 0
x_18_20_1_5 0
x_19_20_0_0 0
x_19_20_0_1 0
x_19_20_0_2 0
x_19_20_0_3 0
x_19_20_0_4 0
x_19_20_0_5 0
x_19_20_1_0 0
x_19_20_1_1 0
x_19_20_1_2 0
x_19_20_1_3 0
x_19_20_1_4 0
x_19_20_1_5 0
